\ This file has been generated by DOcplex
\ ENCODING=ISO-8859-1
\Problem name: random_problem.lp

Minimize
 obj: 0.000517048959 x0 + 0.000258524479 x1 + 0.000129262240 x2
      - 0.003251648589 x3 - 0.001625824294 x4 - 0.000812912147 x5 + [
      0.006786197181 x0^2 + 0.006786197181 x0*x1 + 0.003393098591 x0*x2
      + 0.003542159523 x0*x3 + 0.001771079761 x0*x4 + 0.000885539881 x0*x5
      + 0.001696549295 x1^2 + 0.001696549295 x1*x2 + 0.001771079761 x1*x3
      + 0.000885539881 x1*x4 + 0.000442769940 x1*x5 + 0.000424137324 x2^2
      + 0.000885539881 x2*x3 + 0.000442769940 x2*x4 + 0.000221384970 x2*x5
      + 0.002665732792 x3^2 + 0.002665732792 x3*x4 + 0.001332866396 x3*x5
      + 0.000666433198 x4^2 + 0.000666433198 x4*x5 + 0.000166608300 x5^2 ]/2
Subject To
 c0: 4 x0 + 2 x1 + x2 + 4 x3 + 2 x4 + x5 = 7

Bounds
 0 <= x0 <= 1
 0 <= x1 <= 1
 0 <= x2 <= 1
 0 <= x3 <= 1
 0 <= x4 <= 1
 0 <= x5 <= 1

Binaries
 x0 x1 x2 x3 x4 x5
End
